Route #1: 1 15 7 20 32 35 18 5 1
Route #2: 1 25 17 8 19 27 11 13 26 1
Route #3: 1 30 37 9 4 2 6 34 1
Route #4: 1 14 36 28 1
Route #5: 1 10 22 3 29 23 24 21 1
Route #6: 1 31 16 33 12 1
cost 1155.9407274419711
